(set-logic ALL)
(set-option :produce-models true)
(declare-sort BoundSet 0)
(declare-sort UnboundSet 0)
(set-option :finite-model-find true)
(declare-fun IsAttacked (BoundSet) Bool)
(declare-fun ShiftsAttention (BoundSet) Bool)
(declare-fun IsShifted (BoundSet) Bool)
(declare-fun IsAcceptable (BoundSet) Bool)
(assert (not (=> (exists ((b BoundSet)) (exists ((a BoundSet)) (and (IsAttacked b) (not (ShiftsAttention a))))) (exists ((c BoundSet)) (and (IsShifted c) (IsAcceptable c))))))
(check-sat)
(get-model)